words_hard_train/2762.qaiger
aag 159 16 0 1 143
2
4
12
14
18
22
26
36
38
46
50
56
72
88
104
120
319
6 2 4
8 3 5
10 7 9
16 12 14
20 16 18
24 21 23
28 25 26
30 10 29
32 11 28
34 31 33
40 37 39
42 36 38
44 41 43
48 44 46
52 48 50
54 53 43
58 57 12
60 56 13
62 59 61
64 55 62
66 65 61
68 13 15
70 69 17
74 71 73
76 70 72
78 75 77
80 67 78
82 81 77
84 17 19
86 85 21
90 87 89
92 86 88
94 91 93
96 83 94
98 97 93
100 20 22
102 101 25
106 102 105
108 103 104
110 107 109
112 99 110
114 113 109
116 24 27
118 117 29
122 119 121
124 118 120
126 123 125
128 115 126
130 129 125
132 35 131
134 34 130
136 133 135
138 45 47
140 138 51
142 141 53
144 54 63
146 145 65
148 143 147
150 66 79
152 151 81
154 148 153
156 82 95
158 157 97
160 154 159
162 98 111
164 163 113
166 160 165
168 114 127
170 169 129
172 166 171
174 136 172
176 137 173
178 175 177
180 36 2
182 50 2
184 181 183
186 69 2
188 184 187
190 188 19
192 190 23
194 192 2
196 194 27
198 179 197
200 193 2
202 201 26
204 200 27
206 203 205
208 167 170
210 209 173
212 206 211
214 191 2
216 215 23
218 214 22
220 217 219
222 161 164
224 223 167
226 221 225
228 184 13
230 229 2
232 231 14
234 230 15
236 233 235
238 142 146
240 239 149
242 183 36
244 182 37
246 243 245
248 247 49
250 249 139
252 251 141
254 185 12
256 255 229
258 252 256
260 241 259
262 253 257
264 261 263
266 149 152
268 267 155
270 264 268
272 236 271
274 265 269
276 273 275
278 189 18
280 279 191
282 155 158
284 283 161
286 280 284
288 277 287
290 281 285
292 289 291
294 227 292
296 220 224
298 295 297
300 213 299
302 207 210
304 301 303
306 199 305
308 178 196
310 309 304
312 307 311
314 313 177
316 312 176
318 315 317
i0 1 x1[7]
i1 2 y1[7]
i2 1 x1[2]
i3 1 x1[3]
i4 1 x1[4]
i5 1 x1[5]
i6 1 x1[6]
i7 1 x1[1]
i8 2 y1[1]
i9 2 y1[0]
i10 1 x1[0]
i11 2 y1[2]
i12 2 y1[3]
i13 2 y1[4]
i14 2 y1[5]
i15 2 y1[6]
o0 bv[0]
c
simplified
  <=
    add
      subtract
        1 x1
        220
      2 y1
    abs
      1 x1
