words_hard_train/2762.qaiger.qdimacs
p cnf 159 430
a 1 6 7 9 11 13 18 25 0
e 2 3 4 5 8 10 12 14 15 16 17 19 20 21 22 23 24 26 27 28 29 30 31 32 33 34 35 36 37 38 39 40 41 42 43 44 45 46 47 48 49 50 51 52 53 54 55 56 57 58 59 60 61 62 63 64 65 66 67 68 69 70 71 72 73 74 75 76 77 78 79 80 81 82 83 84 85 86 87 88 89 90 91 92 93 94 95 96 97 98 99 100 101 102 103 104 105 106 107 108 109 110 111 112 113 114 115 116 117 118 119 120 121 122 123 124 125 126 127 128 129 130 131 132 133 134 135 136 137 138 139 140 141 142 143 144 145 146 147 148 149 150 151 152 153 154 155 156 157 158 159 0
-1 -2 3 0
1 -3 0
2 -3 0
1 2 4 0
-1 -4 0
-2 -4 0
3 4 5 0
-3 -5 0
-4 -5 0
-6 -7 8 0
6 -8 0
7 -8 0
-8 -9 10 0
8 -10 0
9 -10 0
10 11 12 0
-10 -12 0
-11 -12 0
12 -13 14 0
-12 -14 0
13 -14 0
-5 14 15 0
5 -15 0
-14 -15 0
5 -14 16 0
-5 -16 0
14 -16 0
15 16 17 0
-15 -17 0
-16 -17 0
18 19 20 0
-18 -20 0
-19 -20 0
-18 -19 21 0
18 -21 0
19 -21 0
20 21 22 0
-20 -22 0
-21 -22 0
-22 -23 24 0
22 -24 0
23 -24 0
-24 -25 26 0
24 -26 0
25 -26 0
26 21 27 0
-26 -27 0
-21 -27 0
28 -6 29 0
-28 -29 0
6 -29 0
-28 6 30 0
28 -30 0
-6 -30 0
29 30 31 0
-29 -31 0
-30 -31 0
27 -31 32 0
-27 -32 0
31 -32 0
32 30 33 0
-32 -33 0
-30 -33 0
6 7 34 0
-6 -34 0
-7 -34 0
34 8 35 0
-34 -35 0
-8 -35 0
35 36 37 0
-35 -37 0
-36 -37 0
-35 -36 38 0
35 -38 0
36 -38 0
37 38 39 0
-37 -39 0
-38 -39 0
33 -39 40 0
-33 -40 0
39 -40 0
40 38 41 0
-40 -41 0
-38 -41 0
8 9 42 0
-8 -42 0
-9 -42 0
42 10 43 0
-42 -43 0
-10 -43 0
43 44 45 0
-43 -45 0
-44 -45 0
-43 -44 46 0
43 -46 0
44 -46 0
45 46 47 0
-45 -47 0
-46 -47 0
41 -47 48 0
-41 -48 0
47 -48 0
48 46 49 0
-48 -49 0
-46 -49 0
-10 -11 50 0
10 -50 0
11 -50 0
50 12 51 0
-50 -51 0
-12 -51 0
-51 52 53 0
51 -53 0
-52 -53 0
51 -52 54 0
-51 -54 0
52 -54 0
53 54 55 0
-53 -55 0
-54 -55 0
49 -55 56 0
-49 -56 0
55 -56 0
56 54 57 0
-56 -57 0
-54 -57 0
-12 13 58 0
12 -58 0
-13 -58 0
58 14 59 0
-58 -59 0
-14 -59 0
59 60 61 0
-59 -61 0
-60 -61 0
-59 -60 62 0
59 -62 0
60 -62 0
61 62 63 0
-61 -63 0
-62 -63 0
57 -63 64 0
-57 -64 0
63 -64 0
64 62 65 0
-64 -65 0
-62 -65 0
17 65 66 0
-17 -66 0
-65 -66 0
-17 -65 67 0
17 -67 0
65 -67 0
66 67 68 0
-66 -68 0
-67 -68 0
22 23 69 0
-22 -69 0
-23 -69 0
-69 25 70 0
69 -70 0
-25 -70 0
70 26 71 0
-70 -71 0
-26 -71 0
-27 31 72 0
27 -72 0
-31 -72 0
72 32 73 0
-72 -73 0
-32 -73 0
71 73 74 0
-71 -74 0
-73 -74 0
-33 39 75 0
33 -75 0
-39 -75 0
75 40 76 0
-75 -76 0
-40 -76 0
-74 76 77 0
74 -77 0
-76 -77 0
-41 47 78 0
41 -78 0
-47 -78 0
78 48 79 0
-78 -79 0
-48 -79 0
-77 79 80 0
77 -80 0
-79 -80 0
-49 55 81 0
49 -81 0
-55 -81 0
81 56 82 0
-81 -82 0
-56 -82 0
-80 82 83 0
80 -83 0
-82 -83 0
-57 63 84 0
57 -84 0
-63 -84 0
84 64 85 0
-84 -85 0
-64 -85 0
-83 85 86 0
83 -86 0
-85 -86 0
-68 -86 87 0
68 -87 0
86 -87 0
68 86 88 0
-68 -88 0
-86 -88 0
87 88 89 0
-87 -89 0
-88 -89 0
-18 -1 90 0
18 -90 0
1 -90 0
-25 -1 91 0
25 -91 0
1 -91 0
90 91 92 0
-90 -92 0
-91 -92 0
34 -1 93 0
-34 -93 0
1 -93 0
-92 93 94 0
92 -94 0
-93 -94 0
-94 9 95 0
94 -95 0
-9 -95 0
-95 11 96 0
95 -96 0
-11 -96 0
-96 -1 97 0
96 -97 0
1 -97 0
-97 13 98 0
97 -98 0
-13 -98 0
89 98 99 0
-89 -99 0
-98 -99 0
96 -1 100 0
-96 -100 0
1 -100 0
100 -13 101 0
-100 -101 0
13 -101 0
-100 13 102 0
100 -102 0
-13 -102 0
101 102 103 0
-101 -103 0
-102 -103 0
83 -85 104 0
-83 -104 0
85 -104 0
104 86 105 0
-104 -105 0
-86 -105 0
-103 105 106 0
103 -106 0
-105 -106 0
95 -1 107 0
-95 -107 0
1 -107 0
107 11 108 0
-107 -108 0
-11 -108 0
-107 -11 109 0
107 -109 0
11 -109 0
108 109 110 0
-108 -110 0
-109 -110 0
80 -82 111 0
-80 -111 0
82 -111 0
111 83 112 0
-111 -112 0
-83 -112 0
110 112 113 0
-110 -113 0
-112 -113 0
-92 6 114 0
92 -114 0
-6 -114 0
114 -1 115 0
-114 -115 0
1 -115 0
115 -7 116 0
-115 -116 0
7 -116 0
-115 7 117 0
115 -117 0
-7 -117 0
116 117 118 0
-116 -118 0
-117 -118 0
-71 -73 119 0
71 -119 0
73 -119 0
119 74 120 0
-119 -120 0
-74 -120 0
91 -18 121 0
-91 -121 0
18 -121 0
-91 18 122 0
91 -122 0
-18 -122 0
121 122 123 0
-121 -123 0
-122 -123 0
123 24 124 0
-123 -124 0
-24 -124 0
124 69 125 0
-124 -125 0
-69 -125 0
125 70 126 0
-125 -126 0
-70 -126 0
92 -6 127 0
-92 -127 0
6 -127 0
127 114 128 0
-127 -128 0
-114 -128 0
-126 -128 129 0
126 -129 0
128 -129 0
120 129 130 0
-120 -130 0
-129 -130 0
126 128 131 0
-126 -131 0
-128 -131 0
130 131 132 0
-130 -132 0
-131 -132 0
74 -76 133 0
-74 -133 0
76 -133 0
133 77 134 0
-133 -134 0
-77 -134 0
-132 -134 135 0
132 -135 0
134 -135 0
-118 135 136 0
118 -136 0
-135 -136 0
132 134 137 0
-132 -137 0
-134 -137 0
136 137 138 0
-136 -138 0
-137 -138 0
94 -9 139 0
-94 -139 0
9 -139 0
139 95 140 0
-139 -140 0
-95 -140 0
77 -79 141 0
-77 -141 0
79 -141 0
141 80 142 0
-141 -142 0
-80 -142 0
-140 -142 143 0
140 -143 0
142 -143 0
138 143 144 0
-138 -144 0
-143 -144 0
140 142 145 0
-140 -145 0
-142 -145 0
144 145 146 0
-144 -146 0
-145 -146 0
113 -146 147 0
-113 -147 0
146 -147 0
-110 -112 148 0
110 -148 0
112 -148 0
147 148 149 0
-147 -149 0
-148 -149 0
106 149 150 0
-106 -150 0
-149 -150 0
103 -105 151 0
-103 -151 0
105 -151 0
150 151 152 0
-150 -152 0
-151 -152 0
99 152 153 0
-99 -153 0
-152 -153 0
-89 -98 154 0
89 -154 0
98 -154 0
154 -152 155 0
-154 -155 0
152 -155 0
153 155 156 0
-153 -156 0
-155 -156 0
156 88 157 0
-156 -157 0
-88 -157 0
-156 -88 158 0
156 -158 0
88 -158 0
157 158 159 0
-157 -159 0
-158 -159 0
-159 0
